space,time,state,customer
0,0,0,0
0,0,1,0
0,1,0,0
0,1,1,0
0,2,0,0
0,2,1,0
0,3,0,0
0,3,1,0
0,4,0,0
0,4,1,0
0,5,0,0
0,5,1,0
0,6,0,0
0,6,1,0
0,7,0,0
0,7,1,0
0,8,0,0
0,8,1,0
0,9,0,0
0,9,1,0
0,10,0,0
0,10,1,0
0,11,0,0
0,11,1,0
0,12,0,0
0,12,1,0
0,13,0,0
0,13,1,0
0,14,0,0
0,14,1,0
0,15,0,0
0,15,1,0
0,16,0,0
0,16,1,0
0,17,0,0
0,17,1,0
0,18,0,0
0,18,1,0
0,19,0,0
0,19,1,0
0,20,0,0
0,20,1,0
0,21,0,0
0,21,1,0
0,22,0,0
0,22,1,0
0,23,0,0
0,23,1,0
0,24,0,0
0,24,1,0
0,25,0,0
0,25,1,0
0,26,0,0
0,26,1,0
0,27,0,0
0,27,1,0
0,28,0,0
0,28,1,0
0,29,0,0
0,29,1,0
0,30,0,0
0,30,1,0
0,31,0,0
0,31,1,0
0,32,0,0
0,32,1,0
0,33,0,0
0,33,1,0
0,34,0,0
0,34,1,0
0,35,0,0
0,35,1,0
0,36,0,0
0,36,1,0
0,37,0,0
0,37,1,0
0,38,0,0
0,38,1,0
0,39,0,0
0,39,1,0
0,40,0,0
0,40,1,0
0,41,0,0
0,41,1,0
0,42,0,0
0,42,1,0
0,43,0,0
0,43,1,0
0,44,0,0
0,44,1,0
0,45,0,0
0,45,1,0
0,46,0,0
0,46,1,0
0,47,0,0
0,47,1,0
0,48,0,0
0,48,1,0
0,49,0,0
0,49,1,0
0,50,0,0
0,50,1,0
0,51,0,0
0,51,1,0
0,52,0,0
0,52,1,0
0,53,0,0
0,53,1,0
0,54,0,0
0,54,1,0
0,55,0,0
0,55,1,0
0,56,0,0
0,56,1,0
0,57,0,0
0,57,1,0
0,58,0,0
0,58,1,0
0,59,0,0
0,59,1,0
0,60,0,0
0,60,1,0
1,0,0,0
1,0,1,0
1,1,0,0
1,1,1,0
1,2,0,0
1,2,1,0
1,3,0,0
1,3,1,0
1,4,0,0
1,4,1,0
1,5,0,0
1,5,1,0
1,6,0,0
1,6,1,0
1,7,0,0
1,7,1,0
1,8,0,0
1,8,1,0
1,9,0,0
1,9,1,0
1,10,0,0
1,10,1,0
1,11,0,0
1,11,1,0
1,12,0,0
1,12,1,0
1,13,0,0
1,13,1,0
1,14,0,0
1,14,1,0
1,15,0,0
1,15,1,0
1,16,0,0
1,16,1,0
1,17,0,0
1,17,1,0
1,18,0,0
1,18,1,0
1,19,0,0
1,19,1,0
1,20,0,0
1,20,1,0
1,21,0,0
1,21,1,0
1,22,0,0
1,22,1,0
1,23,0,0
1,23,1,0
1,24,0,0
1,24,1,0
1,25,0,0
1,25,1,0
1,26,0,0
1,26,1,0
1,27,0,0
1,27,1,0
1,28,0,0
1,28,1,0
1,29,0,0
1,29,1,0
1,30,0,0
1,30,1,0
1,31,0,0
1,31,1,0
1,32,0,0
1,32,1,0
1,33,0,0
1,33,1,0
1,34,0,0
1,34,1,0
1,35,0,0
1,35,1,0
1,36,0,0
1,36,1,0
1,37,0,0
1,37,1,0
1,38,0,0
1,38,1,0
1,39,0,0
1,39,1,0
1,40,0,0
1,40,1,0
1,41,0,0
1,41,1,0
1,42,0,0
1,42,1,0
1,43,0,0
1,43,1,0
1,44,0,0
1,44,1,0
1,45,0,0
1,45,1,0
1,46,0,0
1,46,1,0
1,47,0,0
1,47,1,0
1,48,0,0
1,48,1,0
1,49,0,0
1,49,1,0
1,50,0,0
1,50,1,0
1,51,0,0
1,51,1,0
1,52,0,0
1,52,1,0
1,53,0,0
1,53,1,0
1,54,0,0
1,54,1,0
1,55,0,0
1,55,1,0
1,56,0,0
1,56,1,0
1,57,0,0
1,57,1,0
1,58,0,0
1,58,1,0
1,59,0,0
1,59,1,0
1,60,0,0
1,60,1,0
2,0,0,0
2,0,1,0
2,1,0,0
2,1,1,0
2,2,0,0
2,2,1,0
2,3,0,0
2,3,1,0
2,4,0,0
2,4,1,0
2,5,0,0
2,5,1,0
2,6,0,0
2,6,1,0
2,7,0,0
2,7,1,0
2,8,0,0
2,8,1,0
2,9,0,0
2,9,1,0
2,10,0,0
2,10,1,0
2,11,0,0
2,11,1,0
2,12,0,0
2,12,1,0
2,13,0,0
2,13,1,0
2,14,0,0
2,14,1,0
2,15,0,0
2,15,1,0
2,16,0,0
2,16,1,0
2,17,0,0
2,17,1,0
2,18,0,0
2,18,1,0
2,19,0,0
2,19,1,0
2,20,0,0
2,20,1,0
2,21,0,0
2,21,1,0
2,22,0,0
2,22,1,0
2,23,0,0
2,23,1,0
2,24,0,0
2,24,1,0
2,25,0,0
2,25,1,0
2,26,0,0
2,26,1,0
2,27,0,0
2,27,1,0
2,28,0,0
2,28,1,0
2,29,0,0
2,29,1,0
2,30,0,0
2,30,1,0
2,31,0,0
2,31,1,0
2,32,0,0
2,32,1,0
2,33,0,0
2,33,1,0
2,34,0,0
2,34,1,0
2,35,0,0
2,35,1,0
2,36,0,0
2,36,1,0
2,37,0,0
2,37,1,0
2,38,0,0
2,38,1,0
2,39,0,0
2,39,1,0
2,40,0,0
2,40,1,0
2,41,0,0
2,41,1,0
2,42,0,0
2,42,1,0
2,43,0,0
2,43,1,0
2,44,0,0
2,44,1,0
2,45,0,0
2,45,1,0
2,46,0,0
2,46,1,0
2,47,0,0
2,47,1,0
2,48,0,0
2,48,1,0
2,49,0,0
2,49,1,0
2,50,0,0
2,50,1,0
2,51,0,0
2,51,1,0
2,52,0,0
2,52,1,0
2,53,0,0
2,53,1,0
2,54,0,0
2,54,1,0
2,55,0,0
2,55,1,0
2,56,0,0
2,56,1,0
2,57,0,0
2,57,1,0
2,58,0,0
2,58,1,0
2,59,0,0
2,59,1,0
2,60,0,0
2,60,1,0
3,0,0,0
3,0,1,0
3,1,0,0
3,1,1,0
3,2,0,0
3,2,1,0
3,3,0,0
3,3,1,0
3,4,0,0
3,4,1,0
3,5,0,0
3,5,1,0
3,6,0,0
3,6,1,0
3,7,0,0
3,7,1,0
3,8,0,0
3,8,1,0
3,9,0,0
3,9,1,0
3,10,0,0
3,10,1,0
3,11,0,0
3,11,1,0
3,12,0,0
3,12,1,0
3,13,0,0
3,13,1,0
3,14,0,0
3,14,1,0
3,15,0,0
3,15,1,0
3,16,0,0
3,16,1,0
3,17,0,0
3,17,1,0
3,18,0,0
3,18,1,0
3,19,0,0
3,19,1,0
3,20,0,0
3,20,1,0
3,21,0,0
3,21,1,0
3,22,0,0
3,22,1,0
3,23,0,0
3,23,1,0
3,24,0,0
3,24,1,0
3,25,0,0
3,25,1,0
3,26,0,0
3,26,1,0
3,27,0,0
3,27,1,0
3,28,0,0
3,28,1,0
3,29,0,0
3,29,1,0
3,30,0,0
3,30,1,0
3,31,0,0
3,31,1,0
3,32,0,0
3,32,1,0
3,33,0,0
3,33,1,0
3,34,0,0
3,34,1,0
3,35,0,0
3,35,1,0
3,36,0,0
3,36,1,0
3,37,0,0
3,37,1,0
3,38,0,0
3,38,1,0
3,39,0,0
3,39,1,0
3,40,0,0
3,40,1,0
3,41,0,0
3,41,1,0
3,42,0,0
3,42,1,0
3,43,0,0
3,43,1,0
3,44,0,0
3,44,1,0
3,45,0,0
3,45,1,0
3,46,0,0
3,46,1,0
3,47,0,0
3,47,1,0
3,48,0,0
3,48,1,0
3,49,0,0
3,49,1,0
3,50,0,0
3,50,1,0
3,51,0,0
3,51,1,0
3,52,0,0
3,52,1,0
3,53,0,0
3,53,1,0
3,54,0,0
3,54,1,0
3,55,0,0
3,55,1,0
3,56,0,0
3,56,1,0
3,57,0,0
3,57,1,0
3,58,0,0
3,58,1,0
3,59,0,0
3,59,1,0
3,60,0,0
3,60,1,0
4,0,0,0
4,0,1,0
4,1,0,0
4,1,1,0
4,2,0,0
4,2,1,0
4,3,0,0
4,3,1,0
4,4,0,0
4,4,1,0
4,5,0,0
4,5,1,0
4,6,0,0
4,6,1,0
4,7,0,0
4,7,1,0
4,8,0,0
4,8,1,0
4,9,0,0
4,9,1,0
4,10,0,0
4,10,1,0
4,11,0,0
4,11,1,0
4,12,0,0
4,12,1,0
4,13,0,0
4,13,1,0
4,14,0,0
4,14,1,0
4,15,0,0
4,15,1,0
4,16,0,0
4,16,1,0
4,17,0,0
4,17,1,0
4,18,0,0
4,18,1,0
4,19,0,0
4,19,1,0
4,20,0,0
4,20,1,0
4,21,0,0
4,21,1,0
4,22,0,0
4,22,1,0
4,23,0,0
4,23,1,0
4,24,0,0
4,24,1,0
4,25,0,0
4,25,1,0
4,26,0,0
4,26,1,0
4,27,0,0
4,27,1,0
4,28,0,0
4,28,1,0
4,29,0,0
4,29,1,0
4,30,0,0
4,30,1,0
4,31,0,0
4,31,1,0
4,32,0,0
4,32,1,0
4,33,0,0
4,33,1,0
4,34,0,0
4,34,1,0
4,35,0,0
4,35,1,0
4,36,0,0
4,36,1,0
4,37,0,0
4,37,1,0
4,38,0,0
4,38,1,0
4,39,0,0
4,39,1,0
4,40,0,0
4,40,1,0
4,41,0,0
4,41,1,0
4,42,0,0
4,42,1,0
4,43,0,0
4,43,1,0
4,44,0,0
4,44,1,0
4,45,0,0
4,45,1,0
4,46,0,0
4,46,1,0
4,47,0,0
4,47,1,0
4,48,0,0
4,48,1,0
4,49,0,0
4,49,1,0
4,50,0,0
4,50,1,0
4,51,0,0
4,51,1,0
4,52,0,0
4,52,1,0
4,53,0,0
4,53,1,0
4,54,0,0
4,54,1,0
4,55,0,0
4,55,1,0
4,56,0,0
4,56,1,0
4,57,0,0
4,57,1,0
4,58,0,0
4,58,1,0
4,59,0,0
4,59,1,0
4,60,0,0
4,60,1,0
5,0,0,0
5,0,1,0
5,1,0,0
5,1,1,0
5,2,0,0
5,2,1,0
5,3,0,0
5,3,1,0
5,4,0,0
5,4,1,0
5,5,0,0
5,5,1,0
5,6,0,0
5,6,1,0
5,7,0,0
5,7,1,0
5,8,0,0
5,8,1,0
5,9,0,0
5,9,1,0
5,10,0,0
5,10,1,0
5,11,0,0
5,11,1,0
5,12,0,0
5,12,1,0
5,13,0,0
5,13,1,0
5,14,0,0
5,14,1,0
5,15,0,0
5,15,1,0
5,16,0,0
5,16,1,0
5,17,0,0
5,17,1,0
5,18,0,0
5,18,1,0
5,19,0,0
5,19,1,0
5,20,0,0
5,20,1,0
5,21,0,0
5,21,1,0
5,22,0,0
5,22,1,0
5,23,0,0
5,23,1,0
5,24,0,0
5,24,1,0
5,25,0,0
5,25,1,0
5,26,0,0
5,26,1,0
5,27,0,0
5,27,1,0
5,28,0,0
5,28,1,0
5,29,0,0
5,29,1,0
5,30,0,0
5,30,1,0
5,31,0,0
5,31,1,0
5,32,0,0
5,32,1,0
5,33,0,0
5,33,1,0
5,34,0,0
5,34,1,0
5,35,0,0
5,35,1,0
5,36,0,0
5,36,1,0
5,37,0,0
5,37,1,0
5,38,0,0
5,38,1,0
5,39,0,0
5,39,1,0
5,40,0,0
5,40,1,0
5,41,0,0
5,41,1,0
5,42,0,0
5,42,1,0
5,43,0,0
5,43,1,0
5,44,0,0
5,44,1,0
5,45,0,0
5,45,1,0
5,46,0,0
5,46,1,0
5,47,0,0
5,47,1,0
5,48,0,0
5,48,1,0
5,49,0,0
5,49,1,0
5,50,0,0
5,50,1,0
5,51,0,0
5,51,1,0
5,52,0,0
5,52,1,0
5,53,0,0
5,53,1,0
5,54,0,0
5,54,1,0
5,55,0,0
5,55,1,0
5,56,0,0
5,56,1,0
5,57,0,0
5,57,1,0
5,58,0,0
5,58,1,0
5,59,0,0
5,59,1,0
5,60,0,0
5,60,1,0
6,0,0,0
6,0,1,0
6,1,0,0
6,1,1,0
6,2,0,0
6,2,1,0
6,3,0,0
6,3,1,0
6,4,0,0
6,4,1,0
6,5,0,0
6,5,1,0
6,6,0,0
6,6,1,0
6,7,0,0
6,7,1,0
6,8,0,0
6,8,1,0
6,9,0,0
6,9,1,0
6,10,0,0
6,10,1,0
6,11,0,0
6,11,1,0
6,12,0,0
6,12,1,0
6,13,0,0
6,13,1,0
6,14,0,0
6,14,1,0
6,15,0,0
6,15,1,0
6,16,0,0
6,16,1,0
6,17,0,0
6,17,1,0
6,18,0,0
6,18,1,0
6,19,0,0
6,19,1,0
6,20,0,0
6,20,1,0
6,21,0,0
6,21,1,0
6,22,0,0
6,22,1,0
6,23,0,0
6,23,1,0
6,24,0,0
6,24,1,0
6,25,0,0
6,25,1,0
6,26,0,0
6,26,1,0
6,27,0,0
6,27,1,0
6,28,0,0
6,28,1,0
6,29,0,0
6,29,1,0
6,30,0,0
6,30,1,0
6,31,0,0
6,31,1,0
6,32,0,0
6,32,1,0
6,33,0,0
6,33,1,0
6,34,0,0
6,34,1,0
6,35,0,0
6,35,1,0
6,36,0,0
6,36,1,0
6,37,0,0
6,37,1,0
6,38,0,0
6,38,1,0
6,39,0,0
6,39,1,0
6,40,0,0
6,40,1,0
6,41,0,0
6,41,1,0
6,42,0,0
6,42,1,0
6,43,0,0
6,43,1,0
6,44,0,0
6,44,1,0
6,45,0,0
6,45,1,0
6,46,0,0
6,46,1,0
6,47,0,0
6,47,1,0
6,48,0,0
6,48,1,0
6,49,0,0
6,49,1,0
6,50,0,0
6,50,1,0
6,51,0,0
6,51,1,0
6,52,0,0
6,52,1,0
6,53,0,0
6,53,1,0
6,54,0,0
6,54,1,0
6,55,0,0
6,55,1,0
6,56,0,0
6,56,1,0
6,57,0,0
6,57,1,0
6,58,0,0
6,58,1,0
6,59,0,0
6,59,1,0
6,60,0,0
6,60,1,0
7,0,0,0
7,0,1,0
7,1,0,0
7,1,1,0
7,2,0,0
7,2,1,0
7,3,0,0
7,3,1,0
7,4,0,0
7,4,1,0
7,5,0,0
7,5,1,0
7,6,0,0
7,6,1,0
7,7,0,0
7,7,1,0
7,8,0,0
7,8,1,0
7,9,0,0
7,9,1,0
7,10,0,0
7,10,1,0
7,11,0,0
7,11,1,0
7,12,0,0
7,12,1,0
7,13,0,0
7,13,1,0
7,14,0,0
7,14,1,0
7,15,0,0
7,15,1,0
7,16,0,0
7,16,1,0
7,17,0,0
7,17,1,0
7,18,0,0
7,18,1,0
7,19,0,0
7,19,1,0
7,20,0,0
7,20,1,0
7,21,0,0
7,21,1,0
7,22,0,0
7,22,1,0
7,23,0,0
7,23,1,0
7,24,0,0
7,24,1,0
7,25,0,0
7,25,1,0
7,26,0,0
7,26,1,0
7,27,0,0
7,27,1,0
7,28,0,0
7,28,1,0
7,29,0,0
7,29,1,0
7,30,0,0
7,30,1,0
7,31,0,0
7,31,1,0
7,32,0,0
7,32,1,0
7,33,0,0
7,33,1,0
7,34,0,0
7,34,1,0
7,35,0,0
7,35,1,0
7,36,0,0
7,36,1,0
7,37,0,0
7,37,1,0
7,38,0,0
7,38,1,0
7,39,0,0
7,39,1,0
7,40,0,0
7,40,1,0
7,41,0,0
7,41,1,0
7,42,0,0
7,42,1,0
7,43,0,0
7,43,1,0
7,44,0,0
7,44,1,0
7,45,0,0
7,45,1,0
7,46,0,0
7,46,1,0
7,47,0,0
7,47,1,0
7,48,0,0
7,48,1,0
7,49,0,0
7,49,1,0
7,50,0,0
7,50,1,0
7,51,0,0
7,51,1,0
7,52,0,0
7,52,1,0
7,53,0,0
7,53,1,0
7,54,0,0
7,54,1,0
7,55,0,0
7,55,1,0
7,56,0,0
7,56,1,0
7,57,0,0
7,57,1,0
7,58,0,0
7,58,1,0
7,59,0,0
7,59,1,0
7,60,0,0
7,60,1,0
8,0,0,0
8,0,1,0
8,1,0,0
8,1,1,0
8,2,0,0
8,2,1,0
8,3,0,0
8,3,1,0
8,4,0,0
8,4,1,0
8,5,0,0
8,5,1,0
8,6,0,0
8,6,1,0
8,7,0,0
8,7,1,0
8,8,0,0
8,8,1,0
8,9,0,0
8,9,1,0
8,10,0,0
8,10,1,0
8,11,0,0
8,11,1,0
8,12,0,0
8,12,1,0
8,13,0,0
8,13,1,0
8,14,0,0
8,14,1,0
8,15,0,0
8,15,1,0
8,16,0,0
8,16,1,0
8,17,0,0
8,17,1,0
8,18,0,0
8,18,1,0
8,19,0,0
8,19,1,0
8,20,0,0
8,20,1,0
8,21,0,0
8,21,1,0
8,22,0,0
8,22,1,0
8,23,0,0
8,23,1,0
8,24,0,0
8,24,1,0
8,25,0,0
8,25,1,0
8,26,0,0
8,26,1,0
8,27,0,0
8,27,1,0
8,28,0,0
8,28,1,0
8,29,0,0
8,29,1,0
8,30,0,0
8,30,1,0
8,31,0,0
8,31,1,0
8,32,0,0
8,32,1,0
8,33,0,0
8,33,1,0
8,34,0,0
8,34,1,0
8,35,0,0
8,35,1,0
8,36,0,0
8,36,1,0
8,37,0,0
8,37,1,0
8,38,0,0
8,38,1,0
8,39,0,0
8,39,1,0
8,40,0,0
8,40,1,0
8,41,0,0
8,41,1,0
8,42,0,0
8,42,1,0
8,43,0,0
8,43,1,0
8,44,0,0
8,44,1,0
8,45,0,0
8,45,1,0
8,46,0,0
8,46,1,0
8,47,0,0
8,47,1,0
8,48,0,0
8,48,1,0
8,49,0,0
8,49,1,0
8,50,0,0
8,50,1,0
8,51,0,0
8,51,1,0
8,52,0,0
8,52,1,0
8,53,0,0
8,53,1,0
8,54,0,0
8,54,1,0
8,55,0,0
8,55,1,0
8,56,0,0
8,56,1,0
8,57,0,0
8,57,1,0
8,58,0,0
8,58,1,0
8,59,0,0
8,59,1,0
8,60,0,0
8,60,1,0
9,0,0,0
9,0,1,0
9,1,0,0
9,1,1,0
9,2,0,0
9,2,1,0
9,3,0,0
9,3,1,0
9,4,0,0
9,4,1,0
9,5,0,0
9,5,1,0
9,6,0,0
9,6,1,0
9,7,0,0
9,7,1,0
9,8,0,0
9,8,1,0
9,9,0,0
9,9,1,0
9,10,0,0
9,10,1,0
9,11,0,0
9,11,1,0
9,12,0,0
9,12,1,0
9,13,0,0
9,13,1,0
9,14,0,0
9,14,1,0
9,15,0,0
9,15,1,0
9,16,0,0
9,16,1,0
9,17,0,0
9,17,1,0
9,18,0,0
9,18,1,0
9,19,0,0
9,19,1,0
9,20,0,0
9,20,1,0
9,21,0,0
9,21,1,0
9,22,0,0
9,22,1,0
9,23,0,0
9,23,1,0
9,24,0,0
9,24,1,0
9,25,0,0
9,25,1,0
9,26,0,0
9,26,1,0
9,27,0,0
9,27,1,0
9,28,0,0
9,28,1,0
9,29,0,0
9,29,1,0
9,30,0,0
9,30,1,0
9,31,0,0
9,31,1,0
9,32,0,0
9,32,1,0
9,33,0,0
9,33,1,0
9,34,0,0
9,34,1,0
9,35,0,0
9,35,1,0
9,36,0,0
9,36,1,0
9,37,0,0
9,37,1,0
9,38,0,0
9,38,1,0
9,39,0,0
9,39,1,0
9,40,0,0
9,40,1,0
9,41,0,0
9,41,1,0
9,42,0,0
9,42,1,0
9,43,0,0
9,43,1,0
9,44,0,0
9,44,1,0
9,45,0,0
9,45,1,0
9,46,0,0
9,46,1,0
9,47,0,0
9,47,1,0
9,48,0,0
9,48,1,0
9,49,0,0
9,49,1,0
9,50,0,0
9,50,1,0
9,51,0,0
9,51,1,0
9,52,0,0
9,52,1,0
9,53,0,0
9,53,1,0
9,54,0,0
9,54,1,0
9,55,0,0
9,55,1,0
9,56,0,0
9,56,1,0
9,57,0,0
9,57,1,0
9,58,0,0
9,58,1,0
9,59,0,0
9,59,1,0
9,60,0,0
9,60,1,0
10,0,0,1
10,0,1,1
10,1,0,1
10,1,1,1
10,2,0,1
10,2,1,1
10,3,0,1
10,3,1,1
10,4,0,1
10,4,1,1
10,5,0,1
10,5,1,1
10,6,0,1
10,6,1,1
10,7,0,1
10,7,1,1
10,8,0,1
10,8,1,1
10,9,0,1
10,9,1,1
10,10,0,1
10,10,1,1
10,11,0,1
10,11,1,1
10,12,0,1
10,12,1,1
10,13,0,1
10,13,1,1
10,14,0,1
10,14,1,1
10,15,0,1
10,15,1,1
10,16,0,1
10,16,1,1
10,17,0,1
10,17,1,1
10,18,0,1
10,18,1,1
10,19,0,1
10,19,1,1
10,20,0,1
10,20,1,1
10,21,0,1
10,21,1,1
10,22,0,1
10,22,1,1
10,23,0,1
10,23,1,1
10,24,0,1
10,24,1,1
10,25,0,1
10,25,1,1
10,26,0,1
10,26,1,1
10,27,0,1
10,27,1,1
10,28,0,1
10,28,1,1
10,29,0,1
10,29,1,1
10,30,0,1
10,30,1,1
10,31,0,1
10,31,1,1
10,32,0,1
10,32,1,1
10,33,0,1
10,33,1,1
10,34,0,1
10,34,1,1
10,35,0,1
10,35,1,1
10,36,0,1
10,36,1,1
10,37,0,1
10,37,1,1
10,38,0,1
10,38,1,1
10,39,0,1
10,39,1,1
10,40,0,1
10,40,1,1
10,41,0,1
10,41,1,1
10,42,0,1
10,42,1,1
10,43,0,1
10,43,1,1
10,44,0,1
10,44,1,1
10,45,0,1
10,45,1,1
10,46,0,1
10,46,1,1
10,47,0,1
10,47,1,1
10,48,0,1
10,48,1,1
10,49,0,1
10,49,1,1
10,50,0,1
10,50,1,1
10,51,0,1
10,51,1,1
10,52,0,1
10,52,1,1
10,53,0,1
10,53,1,1
10,54,0,1
10,54,1,1
10,55,0,1
10,55,1,1
10,56,0,1
10,56,1,1
10,57,0,1
10,57,1,1
10,58,0,1
10,58,1,1
10,59,0,1
10,59,1,1
10,60,0,1
10,60,1,1
11,0,0,1
11,0,1,1
11,1,0,1
11,1,1,1
11,2,0,1
11,2,1,1
11,3,0,1
11,3,1,1
11,4,0,1
11,4,1,1
11,5,0,1
11,5,1,1
11,6,0,1
11,6,1,1
11,7,0,1
11,7,1,1
11,8,0,1
11,8,1,1
11,9,0,1
11,9,1,1
11,10,0,1
11,10,1,1
11,11,0,1
11,11,1,1
11,12,0,1
11,12,1,1
11,13,0,1
11,13,1,1
11,14,0,1
11,14,1,1
11,15,0,1
11,15,1,1
11,16,0,1
11,16,1,1
11,17,0,1
11,17,1,1
11,18,0,1
11,18,1,1
11,19,0,1
11,19,1,1
11,20,0,1
11,20,1,1
11,21,0,1
11,21,1,1
11,22,0,1
11,22,1,1
11,23,0,1
11,23,1,1
11,24,0,1
11,24,1,1
11,25,0,1
11,25,1,1
11,26,0,1
11,26,1,1
11,27,0,1
11,27,1,1
11,28,0,1
11,28,1,1
11,29,0,1
11,29,1,1
11,30,0,1
11,30,1,1
11,31,0,1
11,31,1,1
11,32,0,1
11,32,1,1
11,33,0,1
11,33,1,1
11,34,0,1
11,34,1,1
11,35,0,1
11,35,1,1
11,36,0,1
11,36,1,1
11,37,0,1
11,37,1,1
11,38,0,1
11,38,1,1
11,39,0,1
11,39,1,1
11,40,0,1
11,40,1,1
11,41,0,1
11,41,1,1
11,42,0,1
11,42,1,1
11,43,0,1
11,43,1,1
11,44,0,1
11,44,1,1
11,45,0,1
11,45,1,1
11,46,0,1
11,46,1,1
11,47,0,1
11,47,1,1
11,48,0,1
11,48,1,1
11,49,0,1
11,49,1,1
11,50,0,1
11,50,1,1
11,51,0,1
11,51,1,1
11,52,0,1
11,52,1,1
11,53,0,1
11,53,1,1
11,54,0,1
11,54,1,1
11,55,0,1
11,55,1,1
11,56,0,1
11,56,1,1
11,57,0,1
11,57,1,1
11,58,0,1
11,58,1,1
11,59,0,1
11,59,1,1
11,60,0,1
11,60,1,1
12,0,0,1
12,0,1,1
12,1,0,1
12,1,1,1
12,2,0,1
12,2,1,1
12,3,0,1
12,3,1,1
12,4,0,1
12,4,1,1
12,5,0,1
12,5,1,1
12,6,0,1
12,6,1,1
12,7,0,1
12,7,1,1
12,8,0,1
12,8,1,1
12,9,0,1
12,9,1,1
12,10,0,1
12,10,1,1
12,11,0,1
12,11,1,1
12,12,0,1
12,12,1,1
12,13,0,1
12,13,1,1
12,14,0,1
12,14,1,1
12,15,0,1
12,15,1,1
12,16,0,1
12,16,1,1
12,17,0,1
12,17,1,1
12,18,0,1
12,18,1,1
12,19,0,1
12,19,1,1
12,20,0,1
12,20,1,1
12,21,0,1
12,21,1,1
12,22,0,1
12,22,1,1
12,23,0,1
12,23,1,1
12,24,0,1
12,24,1,1
12,25,0,1
12,25,1,1
12,26,0,1
12,26,1,1
12,27,0,1
12,27,1,1
12,28,0,1
12,28,1,1
12,29,0,1
12,29,1,1
12,30,0,1
12,30,1,1
12,31,0,1
12,31,1,1
12,32,0,1
12,32,1,1
12,33,0,1
12,33,1,1
12,34,0,1
12,34,1,1
12,35,0,1
12,35,1,1
12,36,0,1
12,36,1,1
12,37,0,1
12,37,1,1
12,38,0,1
12,38,1,1
12,39,0,1
12,39,1,1
12,40,0,1
12,40,1,1
12,41,0,1
12,41,1,1
12,42,0,1
12,42,1,1
12,43,0,1
12,43,1,1
12,44,0,1
12,44,1,1
12,45,0,1
12,45,1,1
12,46,0,1
12,46,1,1
12,47,0,1
12,47,1,1
12,48,0,1
12,48,1,1
12,49,0,1
12,49,1,1
12,50,0,1
12,50,1,1
12,51,0,1
12,51,1,1
12,52,0,1
12,52,1,1
12,53,0,1
12,53,1,1
12,54,0,1
12,54,1,1
12,55,0,1
12,55,1,1
12,56,0,1
12,56,1,1
12,57,0,1
12,57,1,1
12,58,0,1
12,58,1,1
12,59,0,1
12,59,1,1
12,60,0,1
12,60,1,1
13,0,0,1
13,0,1,1
13,1,0,1
13,1,1,1
13,2,0,1
13,2,1,1
13,3,0,1
13,3,1,1
13,4,0,1
13,4,1,1
13,5,0,1
13,5,1,1
13,6,0,1
13,6,1,1
13,7,0,1
13,7,1,1
13,8,0,1
13,8,1,1
13,9,0,1
13,9,1,1
13,10,0,1
13,10,1,1
13,11,0,1
13,11,1,1
13,12,0,1
13,12,1,1
13,13,0,1
13,13,1,1
13,14,0,1
13,14,1,1
13,15,0,1
13,15,1,1
13,16,0,1
13,16,1,1
13,17,0,1
13,17,1,1
13,18,0,1
13,18,1,1
13,19,0,1
13,19,1,1
13,20,0,1
13,20,1,1
13,21,0,1
13,21,1,1
13,22,0,1
13,22,1,1
13,23,0,1
13,23,1,1
13,24,0,1
13,24,1,1
13,25,0,1
13,25,1,1
13,26,0,1
13,26,1,1
13,27,0,1
13,27,1,1
13,28,0,1
13,28,1,1
13,29,0,1
13,29,1,1
13,30,0,1
13,30,1,1
13,31,0,1
13,31,1,1
13,32,0,1
13,32,1,1
13,33,0,1
13,33,1,1
13,34,0,1
13,34,1,1
13,35,0,1
13,35,1,1
13,36,0,1
13,36,1,1
13,37,0,1
13,37,1,1
13,38,0,1
13,38,1,1
13,39,0,1
13,39,1,1
13,40,0,1
13,40,1,1
13,41,0,1
13,41,1,1
13,42,0,1
13,42,1,1
13,43,0,1
13,43,1,1
13,44,0,1
13,44,1,1
13,45,0,1
13,45,1,1
13,46,0,1
13,46,1,1
13,47,0,1
13,47,1,1
13,48,0,1
13,48,1,1
13,49,0,1
13,49,1,1
13,50,0,1
13,50,1,1
13,51,0,1
13,51,1,1
13,52,0,1
13,52,1,1
13,53,0,1
13,53,1,1
13,54,0,1
13,54,1,1
13,55,0,1
13,55,1,1
13,56,0,1
13,56,1,1
13,57,0,1
13,57,1,1
13,58,0,1
13,58,1,1
13,59,0,1
13,59,1,1
13,60,0,1
13,60,1,1
14,0,0,0
14,0,1,0
14,1,0,0
14,1,1,0
14,2,0,0
14,2,1,0
14,3,0,0
14,3,1,0
14,4,0,0
14,4,1,0
14,5,0,0
14,5,1,0
14,6,0,0
14,6,1,0
14,7,0,0
14,7,1,0
14,8,0,0
14,8,1,0
14,9,0,0
14,9,1,0
14,10,0,0
14,10,1,0
14,11,0,0
14,11,1,0
14,12,0,0
14,12,1,0
14,13,0,0
14,13,1,0
14,14,0,0
14,14,1,0
14,15,0,0
14,15,1,0
14,16,0,0
14,16,1,0
14,17,0,0
14,17,1,0
14,18,0,0
14,18,1,0
14,19,0,0
14,19,1,0
14,20,0,0
14,20,1,0
14,21,0,0
14,21,1,0
14,22,0,0
14,22,1,0
14,23,0,0
14,23,1,0
14,24,0,0
14,24,1,0
14,25,0,0
14,25,1,0
14,26,0,0
14,26,1,0
14,27,0,0
14,27,1,0
14,28,0,0
14,28,1,0
14,29,0,0
14,29,1,0
14,30,0,0
14,30,1,0
14,31,0,0
14,31,1,0
14,32,0,0
14,32,1,0
14,33,0,0
14,33,1,0
14,34,0,0
14,34,1,0
14,35,0,0
14,35,1,0
14,36,0,0
14,36,1,0
14,37,0,0
14,37,1,0
14,38,0,0
14,38,1,0
14,39,0,0
14,39,1,0
14,40,0,0
14,40,1,0
14,41,0,0
14,41,1,0
14,42,0,0
14,42,1,0
14,43,0,0
14,43,1,0
14,44,0,0
14,44,1,0
14,45,0,0
14,45,1,0
14,46,0,0
14,46,1,0
14,47,0,0
14,47,1,0
14,48,0,0
14,48,1,0
14,49,0,0
14,49,1,0
14,50,0,0
14,50,1,0
14,51,0,0
14,51,1,0
14,52,0,0
14,52,1,0
14,53,0,0
14,53,1,0
14,54,0,0
14,54,1,0
14,55,0,0
14,55,1,0
14,56,0,0
14,56,1,0
14,57,0,0
14,57,1,0
14,58,0,0
14,58,1,0
14,59,0,0
14,59,1,0
14,60,0,0
14,60,1,0
